p cnf 52 65
-1 24 30 34 36 37 -2 39 45 0 
-3 9 25 31 -4 -5 38 46 0 
-6 45 0 
-5 38 -4 -7 12 47 0 
-8 -5 38 46 0 
-5 38 -4 -9 3 25 31 48 0 
-3 9 25 31 -5 38 46 0 
-10 -5 38 46 0 
-11 27 43 -5 38 46 0 
-12 7 -5 38 46 0 
-13 29 45 0 
-2 39 -14 45 0 
-15 -5 38 46 0 
-2 39 45 0 
-16 -5 38 46 0 
-17 -5 38 46 0 
-1 24 30 34 36 37 45 0 
-5 38 46 0 
-18 44 -5 38 46 0 
-4 -5 38 46 0 
-1 24 30 34 36 37 -18 44 45 0 
-19 20 21 -5 38 46 0 
-5 38 -4 -20 19 21 48 0 
-5 38 -4 -20 19 21 47 0 
-2 39 49 0 
-5 38 -21 19 20 50 0 
-22 23 28 33 40 41 42 -13 29 49 0 
-23 22 28 33 40 41 42 49 0 
-24 1 30 34 36 37 -14 49 0 
-25 3 9 31 -5 38 50 0 
-1 24 30 34 36 37 49 0 
-1 24 30 34 36 37 50 0 
-26 32 50 0 
-21 19 20 -5 38 50 0 
-13 29 50 0 
-24 1 30 34 36 37 49 0 
-27 11 43 -5 38 50 0 
-28 22 23 33 40 41 42 49 0 
-29 13 -24 1 30 34 36 37 -18 44 49 0 
-13 29 49 0 
-30 1 24 34 36 37 -31 3 9 25 -2 39 -14 -18 44 49 0 
-30 1 24 34 36 37 -32 26 51 0 
-14 -30 1 24 34 36 37 51 0 
-3 9 25 31 -15 -5 38 46 0 
-3 9 25 31 -8 -5 38 46 0 
-33 22 23 28 40 41 42 49 0 
-16 -34 1 24 30 36 37 49 0 
-7 12 -20 19 21 -4 -9 3 25 31 47 0 
-7 12 -20 19 21 -4 -9 3 25 31 48 0 
-35 -5 38 46 0 
-16 -34 1 24 30 36 37 45 0 
-33 22 23 28 40 41 42 45 0 
-22 23 28 33 40 41 42 49 0 
-36 1 24 30 34 37 -22 23 28 33 40 41 42 49 0 
-37 1 24 30 34 36 -38 5 52 0 
-3 9 25 31 -35 -5 38 46 0 
-4 -20 19 21 -5 38 48 0 
-5 38 -9 3 25 31 -4 47 0 
-3 9 25 31 -18 44 -5 38 46 0 
-39 2 -4 -20 19 21 47 0 
-24 1 30 34 36 37 45 0 
-40 22 23 28 33 41 42 45 0 
-41 22 23 28 33 40 42 -14 49 0 
-42 22 23 28 33 40 41 -43 11 27 50 0 
-44 18 -5 38 50 0 
